c " random instance " 
p edges 200 4073
e 1 4
e 1 7
e 1 8
e 1 13
e 1 15
e 1 16
e 1 17
e 1 20
e 1 29
e 1 31
e 1 33
e 1 40
e 1 42
e 1 44
e 1 50
e 1 58
e 1 65
e 1 68
e 1 70
e 1 72
e 1 101
e 1 108
e 1 122
e 1 124
e 1 126
e 1 132
e 1 135
e 1 137
e 1 143
e 1 146
e 1 152
e 1 153
e 1 157
e 1 166
e 1 168
e 1 176
e 1 178
e 1 183
e 1 186
e 1 187
e 1 195
e 1 197
e 2 7
e 2 12
e 2 17
e 2 18
e 2 28
e 2 29
e 2 34
e 2 36
e 2 40
e 2 42
e 2 45
e 2 48
e 2 58
e 2 65
e 2 66
e 2 71
e 2 73
e 2 85
e 2 86
e 2 88
e 2 89
e 2 93
e 2 101
e 2 106
e 2 108
e 2 109
e 2 113
e 2 117
e 2 125
e 2 143
e 2 144
e 2 148
e 2 149
e 2 161
e 2 164
e 2 165
e 2 170
e 2 173
e 2 177
e 2 178
e 2 181
e 2 182
e 2 187
e 2 188
e 2 192
e 2 195
e 2 198
e 3 7
e 3 8
e 3 12
e 3 14
e 3 19
e 3 23
e 3 24
e 3 35
e 3 36
e 3 38
e 3 47
e 3 49
e 3 51
e 3 57
e 3 59
e 3 60
e 3 65
e 3 69
e 3 76
e 3 78
e 3 82
e 3 86
e 3 92
e 3 96
e 3 97
e 3 107
e 3 108
e 3 113
e 3 125
e 3 126
e 3 128
e 3 133
e 3 134
e 3 141
e 3 142
e 3 143
e 3 144
e 3 150
e 3 156
e 3 161
e 3 165
e 3 166
e 3 177
e 3 180
e 3 181
e 3 182
e 3 190
e 3 191
e 3 192
e 3 198
e 3 200
e 4 7
e 4 10
e 4 19
e 4 36
e 4 37
e 4 38
e 4 65
e 4 68
e 4 73
e 4 74
e 4 78
e 4 84
e 4 85
e 4 88
e 4 91
e 4 95
e 4 99
e 4 107
e 4 109
e 4 113
e 4 123
e 4 125
e 4 130
e 4 139
e 4 143
e 4 148
e 4 153
e 4 156
e 4 159
e 4 169
e 4 176
e 4 187
e 4 189
e 4 195
e 4 197
e 4 199
e 5 7
e 5 14
e 5 26
e 5 27
e 5 29
e 5 30
e 5 39
e 5 41
e 5 49
e 5 50
e 5 56
e 5 65
e 5 66
e 5 72
e 5 75
e 5 84
e 5 85
e 5 101
e 5 114
e 5 116
e 5 123
e 5 126
e 5 133
e 5 134
e 5 137
e 5 149
e 5 152
e 5 153
e 5 156
e 5 158
e 5 159
e 5 162
e 5 166
e 5 182
e 5 185
e 5 189
e 5 190
e 5 191
e 5 196
e 6 9
e 6 10
e 6 16
e 6 22
e 6 30
e 6 35
e 6 38
e 6 39
e 6 44
e 6 52
e 6 67
e 6 69
e 6 70
e 6 73
e 6 86
e 6 89
e 6 92
e 6 104
e 6 109
e 6 116
e 6 131
e 6 142
e 6 145
e 6 152
e 6 158
e 6 172
e 6 188
e 6 189
e 6 194
e 6 197
e 6 200
e 7 14
e 7 18
e 7 19
e 7 24
e 7 27
e 7 38
e 7 41
e 7 50
e 7 53
e 7 82
e 7 84
e 7 86
e 7 88
e 7 89
e 7 90
e 7 91
e 7 93
e 7 96
e 7 101
e 7 102
e 7 106
e 7 112
e 7 113
e 7 118
e 7 119
e 7 120
e 7 121
e 7 123
e 7 126
e 7 127
e 7 129
e 7 138
e 7 145
e 7 151
e 7 164
e 7 172
e 7 182
e 7 186
e 7 189
e 7 192
e 7 194
e 7 197
e 7 199
e 8 11
e 8 14
e 8 15
e 8 16
e 8 21
e 8 25
e 8 26
e 8 34
e 8 37
e 8 42
e 8 45
e 8 55
e 8 58
e 8 63
e 8 65
e 8 71
e 8 74
e 8 76
e 8 78
e 8 83
e 8 89
e 8 90
e 8 91
e 8 100
e 8 108
e 8 111
e 8 114
e 8 122
e 8 126
e 8 127
e 8 143
e 8 145
e 8 151
e 8 156
e 8 157
e 8 159
e 8 174
e 8 185
e 8 188
e 8 190
e 8 200
e 9 10
e 9 18
e 9 20
e 9 21
e 9 27
e 9 33
e 9 41
e 9 46
e 9 47
e 9 52
e 9 54
e 9 59
e 9 63
e 9 65
e 9 67
e 9 69
e 9 74
e 9 78
e 9 80
e 9 103
e 9 106
e 9 107
e 9 109
e 9 116
e 9 118
e 9 121
e 9 122
e 9 124
e 9 126
e 9 127
e 9 139
e 9 157
e 9 163
e 9 165
e 9 175
e 10 15
e 10 18
e 10 22
e 10 24
e 10 26
e 10 28
e 10 30
e 10 33
e 10 62
e 10 63
e 10 66
e 10 73
e 10 75
e 10 84
e 10 94
e 10 96
e 10 120
e 10 121
e 10 127
e 10 128
e 10 130
e 10 132
e 10 137
e 10 142
e 10 143
e 10 154
e 10 157
e 10 159
e 10 161
e 10 162
e 10 164
e 10 166
e 10 183
e 10 185
e 10 191
e 10 195
e 10 198
e 10 199
e 11 14
e 11 18
e 11 19
e 11 25
e 11 27
e 11 29
e 11 42
e 11 46
e 11 49
e 11 50
e 11 60
e 11 63
e 11 68
e 11 73
e 11 79
e 11 87
e 11 89
e 11 92
e 11 93
e 11 95
e 11 104
e 11 105
e 11 112
e 11 117
e 11 121
e 11 125
e 11 129
e 11 130
e 11 134
e 11 139
e 11 141
e 11 142
e 11 143
e 11 144
e 11 145
e 11 164
e 11 171
e 11 173
e 11 176
e 11 186
e 11 188
e 11 197
e 12 17
e 12 18
e 12 22
e 12 28
e 12 31
e 12 33
e 12 42
e 12 43
e 12 55
e 12 56
e 12 61
e 12 62
e 12 64
e 12 66
e 12 73
e 12 76
e 12 77
e 12 92
e 12 95
e 12 101
e 12 103
e 12 105
e 12 106
e 12 116
e 12 119
e 12 126
e 12 129
e 12 133
e 12 140
e 12 146
e 12 148
e 12 155
e 12 160
e 12 162
e 12 164
e 12 166
e 12 180
e 12 187
e 12 195
e 13 16
e 13 19
e 13 21
e 13 28
e 13 39
e 13 54
e 13 61
e 13 68
e 13 70
e 13 74
e 13 78
e 13 83
e 13 89
e 13 94
e 13 102
e 13 104
e 13 107
e 13 108
e 13 112
e 13 115
e 13 119
e 13 121
e 13 128
e 13 139
e 13 142
e 13 143
e 13 149
e 13 165
e 13 172
e 13 187
e 13 189
e 13 190
e 13 197
e 13 198
e 13 199
e 14 15
e 14 20
e 14 23
e 14 29
e 14 34
e 14 36
e 14 42
e 14 43
e 14 45
e 14 47
e 14 48
e 14 53
e 14 60
e 14 62
e 14 68
e 14 71
e 14 75
e 14 77
e 14 81
e 14 82
e 14 88
e 14 92
e 14 95
e 14 96
e 14 115
e 14 116
e 14 118
e 14 121
e 14 125
e 14 136
e 14 139
e 14 140
e 14 142
e 14 143
e 14 145
e 14 149
e 14 155
e 14 156
e 14 157
e 14 159
e 14 163
e 14 166
e 14 168
e 14 173
e 14 175
e 14 178
e 14 179
e 14 184
e 14 187
e 14 192
e 14 196
e 15 17
e 15 21
e 15 22
e 15 25
e 15 28
e 15 36
e 15 37
e 15 38
e 15 44
e 15 47
e 15 51
e 15 52
e 15 70
e 15 71
e 15 76
e 15 77
e 15 81
e 15 87
e 15 88
e 15 94
e 15 100
e 15 103
e 15 106
e 15 107
e 15 108
e 15 111
e 15 114
e 15 121
e 15 124
e 15 131
e 15 134
e 15 136
e 15 143
e 15 151
e 15 152
e 15 158
e 15 165
e 15 174
e 15 175
e 15 177
e 15 178
e 15 184
e 15 187
e 15 199
e 16 17
e 16 33
e 16 35
e 16 42
e 16 46
e 16 49
e 16 50
e 16 55
e 16 57
e 16 60
e 16 62
e 16 65
e 16 76
e 16 77
e 16 82
e 16 86
e 16 93
e 16 94
e 16 95
e 16 100
e 16 109
e 16 112
e 16 117
e 16 123
e 16 143
e 16 145
e 16 149
e 16 153
e 16 160
e 16 161
e 16 164
e 16 165
e 16 166
e 16 174
e 16 185
e 16 189
e 16 191
e 17 20
e 17 21
e 17 25
e 17 35
e 17 43
e 17 56
e 17 65
e 17 71
e 17 75
e 17 78
e 17 86
e 17 87
e 17 91
e 17 93
e 17 96
e 17 99
e 17 107
e 17 108
e 17 114
e 17 116
e 17 121
e 17 129
e 17 133
e 17 134
e 17 136
e 17 138
e 17 141
e 17 144
e 17 153
e 17 155
e 17 156
e 17 159
e 17 162
e 17 163
e 17 165
e 17 166
e 17 168
e 17 170
e 17 171
e 17 175
e 17 177
e 17 182
e 17 185
e 17 190
e 17 192
e 18 19
e 18 20
e 18 21
e 18 23
e 18 24
e 18 25
e 18 40
e 18 41
e 18 46
e 18 56
e 18 57
e 18 59
e 18 65
e 18 71
e 18 82
e 18 83
e 18 86
e 18 89
e 18 90
e 18 94
e 18 97
e 18 98
e 18 105
e 18 107
e 18 115
e 18 116
e 18 118
e 18 127
e 18 132
e 18 138
e 18 145
e 18 146
e 18 151
e 18 159
e 18 165
e 18 167
e 18 171
e 18 172
e 18 178
e 18 181
e 18 183
e 18 190
e 18 191
e 18 196
e 18 197
e 18 200
e 19 22
e 19 25
e 19 35
e 19 39
e 19 48
e 19 53
e 19 64
e 19 68
e 19 70
e 19 73
e 19 74
e 19 78
e 19 81
e 19 88
e 19 89
e 19 99
e 19 102
e 19 112
e 19 123
e 19 129
e 19 132
e 19 138
e 19 139
e 19 141
e 19 143
e 19 144
e 19 161
e 19 172
e 19 174
e 19 183
e 19 187
e 19 188
e 19 190
e 19 194
e 19 195
e 19 200
e 20 52
e 20 60
e 20 61
e 20 62
e 20 65
e 20 71
e 20 82
e 20 85
e 20 92
e 20 97
e 20 101
e 20 110
e 20 124
e 20 130
e 20 134
e 20 136
e 20 138
e 20 139
e 20 143
e 20 149
e 20 159
e 20 166
e 20 169
e 20 173
e 20 174
e 20 175
e 20 180
e 20 181
e 20 189
e 20 198
e 21 25
e 21 27
e 21 34
e 21 43
e 21 44
e 21 45
e 21 46
e 21 52
e 21 66
e 21 69
e 21 72
e 21 74
e 21 83
e 21 94
e 21 101
e 21 103
e 21 113
e 21 116
e 21 117
e 21 120
e 21 126
e 21 129
e 21 130
e 21 131
e 21 138
e 21 140
e 21 144
e 21 150
e 21 152
e 21 159
e 21 163
e 21 166
e 21 168
e 21 174
e 21 178
e 21 184
e 21 192
e 21 193
e 21 196
e 21 199
e 22 25
e 22 26
e 22 33
e 22 35
e 22 37
e 22 38
e 22 41
e 22 48
e 22 50
e 22 53
e 22 55
e 22 61
e 22 65
e 22 84
e 22 88
e 22 90
e 22 100
e 22 106
e 22 116
e 22 119
e 22 120
e 22 122
e 22 123
e 22 130
e 22 131
e 22 135
e 22 136
e 22 138
e 22 140
e 22 145
e 22 152
e 22 153
e 22 157
e 22 160
e 22 162
e 22 164
e 22 166
e 22 179
e 22 180
e 22 183
e 22 185
e 22 190
e 22 192
e 22 194
e 22 196
e 22 198
e 23 24
e 23 26
e 23 28
e 23 42
e 23 56
e 23 58
e 23 59
e 23 60
e 23 61
e 23 66
e 23 70
e 23 71
e 23 93
e 23 96
e 23 98
e 23 99
e 23 103
e 23 104
e 23 129
e 23 136
e 23 143
e 23 148
e 23 150
e 23 159
e 23 170
e 23 172
e 23 174
e 23 176
e 23 177
e 23 183
e 23 196
e 23 197
e 23 198
e 23 200
e 24 26
e 24 28
e 24 40
e 24 43
e 24 53
e 24 54
e 24 56
e 24 57
e 24 65
e 24 66
e 24 68
e 24 77
e 24 80
e 24 90
e 24 96
e 24 99
e 24 104
e 24 105
e 24 115
e 24 121
e 24 124
e 24 134
e 24 138
e 24 140
e 24 144
e 24 160
e 24 163
e 24 164
e 24 173
e 24 177
e 24 179
e 24 180
e 24 192
e 24 193
e 24 199
e 25 37
e 25 43
e 25 48
e 25 51
e 25 56
e 25 58
e 25 60
e 25 63
e 25 69
e 25 70
e 25 72
e 25 80
e 25 93
e 25 106
e 25 116
e 25 117
e 25 120
e 25 121
e 25 126
e 25 131
e 25 132
e 25 135
e 25 138
e 25 144
e 25 145
e 25 146
e 25 153
e 25 156
e 25 162
e 25 169
e 25 170
e 25 171
e 25 181
e 25 183
e 25 185
e 25 186
e 25 199
e 26 31
e 26 33
e 26 49
e 26 54
e 26 61
e 26 68
e 26 75
e 26 79
e 26 81
e 26 83
e 26 84
e 26 85
e 26 91
e 26 96
e 26 97
e 26 98
e 26 101
e 26 103
e 26 105
e 26 111
e 26 114
e 26 115
e 26 117
e 26 124
e 26 125
e 26 128
e 26 133
e 26 135
e 26 140
e 26 143
e 26 144
e 26 147
e 26 150
e 26 151
e 26 153
e 26 155
e 26 157
e 26 160
e 26 162
e 26 164
e 26 168
e 26 174
e 26 176
e 26 179
e 26 193
e 26 195
e 26 198
e 26 199
e 26 200
e 27 35
e 27 46
e 27 48
e 27 49
e 27 50
e 27 65
e 27 67
e 27 68
e 27 78
e 27 80
e 27 83
e 27 84
e 27 91
e 27 106
e 27 107
e 27 108
e 27 113
e 27 117
e 27 118
e 27 122
e 27 127
e 27 128
e 27 146
e 27 147
e 27 151
e 27 152
e 27 155
e 27 158
e 27 161
e 27 165
e 27 174
e 27 178
e 27 185
e 27 188
e 27 189
e 27 191
e 27 192
e 27 194
e 27 200
e 28 32
e 28 34
e 28 43
e 28 45
e 28 47
e 28 49
e 28 61
e 28 64
e 28 73
e 28 75
e 28 79
e 28 81
e 28 84
e 28 86
e 28 89
e 28 93
e 28 94
e 28 111
e 28 117
e 28 122
e 28 124
e 28 135
e 28 140
e 28 141
e 28 146
e 28 149
e 28 150
e 28 152
e 28 154
e 28 155
e 28 167
e 28 171
e 28 176
e 28 181
e 28 184
e 28 199
e 28 200
e 29 37
e 29 41
e 29 42
e 29 51
e 29 59
e 29 60
e 29 67
e 29 70
e 29 89
e 29 90
e 29 95
e 29 109
e 29 116
e 29 122
e 29 123
e 29 136
e 29 137
e 29 145
e 29 149
e 29 151
e 29 154
e 29 155
e 29 159
e 29 162
e 29 170
e 29 171
e 29 172
e 29 185
e 30 36
e 30 37
e 30 39
e 30 40
e 30 42
e 30 44
e 30 45
e 30 46
e 30 50
e 30 58
e 30 66
e 30 70
e 30 72
e 30 74
e 30 77
e 30 82
e 30 97
e 30 102
e 30 135
e 30 138
e 30 142
e 30 143
e 30 145
e 30 151
e 30 152
e 30 156
e 30 165
e 30 167
e 30 170
e 30 171
e 30 173
e 30 178
e 30 186
e 30 191
e 30 193
e 30 194
e 30 197
e 31 36
e 31 40
e 31 44
e 31 45
e 31 46
e 31 47
e 31 49
e 31 51
e 31 93
e 31 96
e 31 97
e 31 98
e 31 101
e 31 104
e 31 110
e 31 111
e 31 122
e 31 126
e 31 129
e 31 133
e 31 140
e 31 145
e 31 147
e 31 148
e 31 149
e 31 153
e 31 156
e 31 157
e 31 160
e 31 164
e 31 166
e 31 173
e 31 177
e 31 179
e 31 180
e 31 181
e 31 189
e 31 191
e 31 198
e 32 33
e 32 39
e 32 46
e 32 48
e 32 64
e 32 65
e 32 73
e 32 77
e 32 78
e 32 83
e 32 84
e 32 107
e 32 108
e 32 118
e 32 119
e 32 122
e 32 124
e 32 125
e 32 134
e 32 144
e 32 147
e 32 150
e 32 151
e 32 152
e 32 155
e 32 156
e 32 171
e 32 173
e 32 174
e 32 182
e 32 183
e 32 191
e 32 193
e 33 35
e 33 38
e 33 40
e 33 58
e 33 60
e 33 61
e 33 66
e 33 73
e 33 81
e 33 82
e 33 88
e 33 91
e 33 92
e 33 96
e 33 106
e 33 109
e 33 113
e 33 123
e 33 128
e 33 132
e 33 141
e 33 146
e 33 152
e 33 158
e 33 159
e 33 164
e 33 166
e 33 170
e 33 171
e 33 174
e 33 178
e 33 186
e 33 189
e 33 190
e 33 191
e 33 194
e 34 40
e 34 42
e 34 45
e 34 50
e 34 65
e 34 78
e 34 86
e 34 88
e 34 91
e 34 95
e 34 122
e 34 126
e 34 128
e 34 140
e 34 157
e 34 158
e 34 159
e 34 163
e 34 166
e 34 173
e 34 187
e 34 191
e 34 192
e 34 197
e 34 198
e 34 199
e 34 200
e 35 37
e 35 39
e 35 40
e 35 42
e 35 44
e 35 48
e 35 51
e 35 52
e 35 53
e 35 64
e 35 66
e 35 71
e 35 79
e 35 83
e 35 87
e 35 94
e 35 95
e 35 98
e 35 99
e 35 104
e 35 105
e 35 111
e 35 117
e 35 123
e 35 127
e 35 130
e 35 138
e 35 141
e 35 143
e 35 146
e 35 161
e 35 162
e 35 167
e 35 168
e 35 177
e 35 186
e 35 189
e 35 198
e 35 200
e 36 47
e 36 48
e 36 62
e 36 64
e 36 66
e 36 67
e 36 72
e 36 75
e 36 84
e 36 88
e 36 92
e 36 93
e 36 96
e 36 97
e 36 101
e 36 108
e 36 116
e 36 125
e 36 133
e 36 136
e 36 151
e 36 154
e 36 159
e 36 162
e 36 163
e 36 165
e 36 167
e 36 173
e 36 178
e 36 180
e 36 181
e 36 192
e 36 196
e 36 198
e 36 199
e 37 38
e 37 39
e 37 60
e 37 67
e 37 69
e 37 75
e 37 77
e 37 107
e 37 108
e 37 111
e 37 114
e 37 127
e 37 133
e 37 135
e 37 136
e 37 137
e 37 138
e 37 144
e 37 145
e 37 150
e 37 154
e 37 161
e 37 164
e 37 175
e 37 176
e 37 177
e 37 184
e 37 185
e 37 187
e 37 191
e 37 192
e 37 193
e 37 196
e 37 199
e 38 46
e 38 52
e 38 58
e 38 62
e 38 69
e 38 73
e 38 74
e 38 76
e 38 84
e 38 98
e 38 99
e 38 100
e 38 113
e 38 114
e 38 118
e 38 125
e 38 127
e 38 130
e 38 135
e 38 143
e 38 147
e 38 149
e 38 152
e 38 153
e 38 162
e 38 163
e 38 164
e 38 166
e 38 175
e 38 177
e 38 179
e 38 180
e 38 189
e 38 194
e 38 199
e 39 43
e 39 46
e 39 49
e 39 53
e 39 60
e 39 75
e 39 77
e 39 78
e 39 81
e 39 87
e 39 91
e 39 96
e 39 107
e 39 109
e 39 110
e 39 129
e 39 136
e 39 138
e 39 148
e 39 150
e 39 165
e 39 168
e 39 173
e 39 175
e 39 177
e 39 180
e 39 191
e 39 193
e 39 194
e 40 42
e 40 51
e 40 56
e 40 57
e 40 58
e 40 61
e 40 68
e 40 71
e 40 72
e 40 74
e 40 75
e 40 76
e 40 77
e 40 89
e 40 92
e 40 96
e 40 99
e 40 110
e 40 112
e 40 114
e 40 119
e 40 120
e 40 123
e 40 129
e 40 134
e 40 137
e 40 142
e 40 154
e 40 157
e 40 158
e 40 176
e 40 177
e 40 184
e 40 195
e 40 196
e 40 199
e 41 45
e 41 46
e 41 48
e 41 53
e 41 57
e 41 67
e 41 71
e 41 77
e 41 81
e 41 87
e 41 88
e 41 90
e 41 97
e 41 99
e 41 107
e 41 112
e 41 114
e 41 115
e 41 116
e 41 120
e 41 142
e 41 156
e 41 159
e 41 169
e 41 177
e 41 182
e 41 186
e 41 187
e 41 188
e 41 194
e 42 44
e 42 45
e 42 50
e 42 52
e 42 61
e 42 63
e 42 72
e 42 73
e 42 78
e 42 81
e 42 84
e 42 97
e 42 100
e 42 101
e 42 103
e 42 104
e 42 124
e 42 125
e 42 126
e 42 127
e 42 134
e 42 137
e 42 145
e 42 155
e 42 156
e 42 159
e 42 169
e 42 173
e 42 180
e 42 185
e 43 44
e 43 60
e 43 65
e 43 71
e 43 73
e 43 75
e 43 77
e 43 83
e 43 88
e 43 90
e 43 95
e 43 102
e 43 105
e 43 108
e 43 110
e 43 113
e 43 115
e 43 127
e 43 131
e 43 140
e 43 144
e 43 156
e 43 157
e 43 160
e 43 166
e 43 176
e 43 184
e 43 186
e 43 189
e 43 190
e 43 195
e 43 199
e 43 200
e 44 46
e 44 57
e 44 63
e 44 64
e 44 67
e 44 71
e 44 74
e 44 80
e 44 82
e 44 85
e 44 87
e 44 89
e 44 94
e 44 100
e 44 101
e 44 104
e 44 106
e 44 119
e 44 123
e 44 133
e 44 134
e 44 141
e 44 142
e 44 149
e 44 153
e 44 155
e 44 156
e 44 168
e 44 169
e 44 170
e 44 176
e 44 181
e 44 183
e 45 46
e 45 54
e 45 56
e 45 62
e 45 71
e 45 75
e 45 89
e 45 92
e 45 95
e 45 97
e 45 98
e 45 105
e 45 109
e 45 115
e 45 116
e 45 118
e 45 124
e 45 126
e 45 130
e 45 141
e 45 153
e 45 155
e 45 159
e 45 163
e 45 168
e 45 171
e 45 172
e 45 173
e 45 185
e 45 194
e 46 55
e 46 59
e 46 62
e 46 78
e 46 80
e 46 84
e 46 85
e 46 88
e 46 89
e 46 91
e 46 92
e 46 95
e 46 100
e 46 103
e 46 105
e 46 110
e 46 117
e 46 131
e 46 132
e 46 138
e 46 144
e 46 146
e 46 147
e 46 148
e 46 154
e 46 155
e 46 164
e 46 166
e 46 170
e 46 179
e 46 188
e 46 195
e 46 196
e 47 48
e 47 52
e 47 53
e 47 57
e 47 65
e 47 73
e 47 81
e 47 83
e 47 87
e 47 89
e 47 95
e 47 96
e 47 98
e 47 100
e 47 113
e 47 119
e 47 121
e 47 125
e 47 126
e 47 141
e 47 145
e 47 151
e 47 162
e 47 167
e 47 174
e 47 179
e 47 180
e 47 182
e 47 184
e 47 187
e 47 190
e 47 192
e 47 193
e 48 50
e 48 51
e 48 57
e 48 58
e 48 60
e 48 64
e 48 68
e 48 72
e 48 74
e 48 75
e 48 87
e 48 92
e 48 102
e 48 103
e 48 112
e 48 115
e 48 118
e 48 125
e 48 126
e 48 130
e 48 142
e 48 158
e 48 159
e 48 161
e 48 176
e 48 179
e 48 184
e 49 51
e 49 68
e 49 78
e 49 80
e 49 86
e 49 94
e 49 96
e 49 97
e 49 110
e 49 115
e 49 116
e 49 132
e 49 135
e 49 144
e 49 146
e 49 147
e 49 149
e 49 150
e 49 155
e 49 176
e 49 184
e 49 187
e 49 189
e 49 191
e 49 198
e 49 200
e 50 51
e 50 53
e 50 59
e 50 62
e 50 64
e 50 74
e 50 77
e 50 79
e 50 86
e 50 91
e 50 98
e 50 101
e 50 109
e 50 119
e 50 121
e 50 125
e 50 133
e 50 143
e 50 147
e 50 159
e 50 165
e 50 167
e 50 181
e 50 194
e 50 196
e 51 59
e 51 64
e 51 66
e 51 68
e 51 78
e 51 79
e 51 80
e 51 88
e 51 97
e 51 102
e 51 114
e 51 116
e 51 119
e 51 128
e 51 129
e 51 132
e 51 134
e 51 149
e 51 152
e 51 158
e 51 166
e 51 172
e 51 173
e 51 174
e 51 179
e 51 180
e 51 182
e 51 197
e 51 198
e 51 200
e 52 62
e 52 82
e 52 85
e 52 87
e 52 91
e 52 95
e 52 104
e 52 105
e 52 110
e 52 113
e 52 126
e 52 129
e 52 134
e 52 138
e 52 142
e 52 163
e 52 170
e 52 173
e 52 175
e 52 178
e 52 179
e 52 181
e 52 191
e 52 198
e 52 200
e 53 54
e 53 56
e 53 59
e 53 67
e 53 72
e 53 80
e 53 93
e 53 94
e 53 98
e 53 100
e 53 101
e 53 103
e 53 106
e 53 122
e 53 125
e 53 126
e 53 138
e 53 146
e 53 147
e 53 150
e 53 161
e 53 169
e 53 171
e 53 173
e 53 174
e 53 176
e 53 185
e 53 192
e 53 196
e 53 198
e 53 199
e 54 59
e 54 61
e 54 78
e 54 92
e 54 94
e 54 97
e 54 98
e 54 99
e 54 108
e 54 110
e 54 112
e 54 113
e 54 117
e 54 120
e 54 122
e 54 124
e 54 128
e 54 133
e 54 135
e 54 139
e 54 146
e 54 148
e 54 154
e 54 161
e 54 162
e 54 167
e 54 172
e 54 173
e 54 184
e 54 194
e 54 195
e 54 196
e 54 199
e 55 56
e 55 68
e 55 73
e 55 74
e 55 76
e 55 95
e 55 97
e 55 100
e 55 103
e 55 106
e 55 112
e 55 121
e 55 122
e 55 127
e 55 139
e 55 141
e 55 159
e 55 161
e 55 166
e 55 169
e 55 177
e 55 182
e 55 185
e 55 190
e 56 64
e 56 73
e 56 75
e 56 99
e 56 103
e 56 106
e 56 107
e 56 116
e 56 126
e 56 133
e 56 143
e 56 150
e 56 153
e 56 156
e 56 159
e 56 172
e 56 173
e 56 176
e 56 186
e 56 190
e 56 191
e 57 58
e 57 60
e 57 61
e 57 68
e 57 72
e 57 84
e 57 85
e 57 92
e 57 104
e 57 109
e 57 114
e 57 116
e 57 123
e 57 129
e 57 130
e 57 138
e 57 139
e 57 142
e 57 157
e 57 158
e 57 162
e 57 163
e 57 167
e 57 168
e 57 169
e 57 171
e 57 172
e 57 174
e 57 179
e 57 180
e 57 194
e 57 198
e 58 59
e 58 80
e 58 84
e 58 98
e 58 107
e 58 108
e 58 110
e 58 122
e 58 135
e 58 141
e 58 143
e 58 152
e 58 153
e 58 156
e 58 167
e 58 170
e 58 171
e 58 175
e 58 182
e 58 189
e 58 190
e 58 197
e 59 66
e 59 78
e 59 93
e 59 95
e 59 97
e 59 98
e 59 99
e 59 101
e 59 108
e 59 119
e 59 129
e 59 161
e 59 177
e 59 180
e 59 189
e 59 192
e 60 61
e 60 64
e 60 67
e 60 68
e 60 70
e 60 75
e 60 79
e 60 80
e 60 82
e 60 94
e 60 102
e 60 108
e 60 114
e 60 120
e 60 125
e 60 128
e 60 131
e 60 145
e 60 148
e 60 155
e 60 158
e 60 170
e 60 177
e 60 178
e 60 180
e 60 183
e 60 189
e 60 195
e 60 196
e 60 199
e 61 63
e 61 71
e 61 72
e 61 75
e 61 76
e 61 83
e 61 88
e 61 99
e 61 106
e 61 125
e 61 126
e 61 127
e 61 128
e 61 130
e 61 146
e 61 156
e 61 161
e 61 163
e 61 165
e 61 170
e 61 171
e 61 181
e 61 186
e 61 193
e 61 195
e 61 196
e 61 199
e 62 70
e 62 71
e 62 74
e 62 80
e 62 87
e 62 92
e 62 99
e 62 126
e 62 128
e 62 132
e 62 133
e 62 134
e 62 140
e 62 142
e 62 144
e 62 149
e 62 156
e 62 159
e 62 169
e 62 170
e 62 184
e 62 190
e 62 195
e 62 196
e 62 198
e 63 64
e 63 67
e 63 68
e 63 70
e 63 75
e 63 76
e 63 82
e 63 83
e 63 88
e 63 96
e 63 107
e 63 108
e 63 111
e 63 127
e 63 138
e 63 139
e 63 141
e 63 145
e 63 154
e 63 157
e 63 160
e 63 161
e 63 168
e 63 171
e 63 177
e 63 178
e 63 185
e 63 192
e 63 193
e 64 66
e 64 68
e 64 72
e 64 74
e 64 75
e 64 76
e 64 78
e 64 83
e 64 89
e 64 90
e 64 92
e 64 95
e 64 97
e 64 99
e 64 107
e 64 119
e 64 124
e 64 125
e 64 127
e 64 131
e 64 139
e 64 142
e 64 144
e 64 145
e 64 146
e 64 149
e 64 165
e 64 169
e 64 172
e 64 179
e 64 180
e 64 181
e 65 70
e 65 71
e 65 74
e 65 75
e 65 76
e 65 84
e 65 86
e 65 88
e 65 93
e 65 96
e 65 97
e 65 98
e 65 112
e 65 124
e 65 127
e 65 131
e 65 133
e 65 134
e 65 136
e 65 137
e 65 140
e 65 147
e 65 150
e 65 151
e 65 154
e 65 155
e 65 158
e 65 160
e 65 174
e 65 178
e 65 180
e 65 182
e 65 183
e 65 194
e 65 195
e 65 196
e 65 198
e 65 199
e 65 200
e 66 70
e 66 74
e 66 78
e 66 79
e 66 80
e 66 84
e 66 90
e 66 93
e 66 102
e 66 105
e 66 107
e 66 109
e 66 110
e 66 112
e 66 114
e 66 119
e 66 120
e 66 124
e 66 128
e 66 130
e 66 134
e 66 135
e 66 137
e 66 149
e 66 153
e 66 171
e 66 183
e 66 190
e 66 192
e 66 193
e 66 195
e 66 196
e 67 68
e 67 73
e 67 79
e 67 84
e 67 85
e 67 101
e 67 105
e 67 109
e 67 110
e 67 112
e 67 118
e 67 123
e 67 130
e 67 132
e 67 135
e 67 138
e 67 139
e 67 144
e 67 148
e 67 153
e 67 155
e 67 165
e 67 166
e 67 174
e 67 176
e 67 183
e 67 189
e 67 194
e 68 69
e 68 70
e 68 82
e 68 84
e 68 87
e 68 89
e 68 92
e 68 94
e 68 97
e 68 110
e 68 111
e 68 114
e 68 116
e 68 120
e 68 121
e 68 125
e 68 130
e 68 134
e 68 138
e 68 139
e 68 145
e 68 146
e 68 147
e 68 148
e 68 153
e 68 157
e 68 159
e 68 160
e 68 161
e 68 162
e 68 167
e 68 169
e 68 170
e 68 172
e 68 173
e 68 175
e 68 185
e 68 191
e 68 194
e 68 196
e 69 73
e 69 78
e 69 89
e 69 94
e 69 102
e 69 104
e 69 113
e 69 116
e 69 133
e 69 136
e 69 149
e 69 154
e 69 160
e 69 164
e 69 173
e 69 175
e 69 177
e 69 183
e 69 188
e 69 190
e 69 195
e 69 199
e 70 73
e 70 75
e 70 77
e 70 79
e 70 85
e 70 86
e 70 97
e 70 98
e 70 102
e 70 103
e 70 110
e 70 111
e 70 128
e 70 130
e 70 135
e 70 138
e 70 140
e 70 141
e 70 149
e 70 168
e 70 173
e 70 181
e 70 190
e 70 200
e 71 74
e 71 82
e 71 89
e 71 92
e 71 97
e 71 99
e 71 106
e 71 107
e 71 108
e 71 110
e 71 111
e 71 115
e 71 119
e 71 121
e 71 129
e 71 132
e 71 137
e 71 138
e 71 142
e 71 148
e 71 150
e 71 151
e 71 156
e 71 157
e 71 162
e 71 166
e 71 167
e 71 170
e 71 193
e 71 194
e 72 79
e 72 80
e 72 86
e 72 90
e 72 98
e 72 104
e 72 105
e 72 109
e 72 120
e 72 122
e 72 124
e 72 130
e 72 131
e 72 134
e 72 138
e 72 150
e 72 152
e 72 154
e 72 168
e 72 169
e 72 174
e 72 177
e 72 189
e 72 190
e 72 191
e 72 192
e 72 200
e 73 75
e 73 76
e 73 77
e 73 78
e 73 79
e 73 80
e 73 85
e 73 87
e 73 91
e 73 92
e 73 99
e 73 103
e 73 104
e 73 105
e 73 108
e 73 131
e 73 132
e 73 143
e 73 146
e 73 150
e 73 156
e 73 162
e 73 163
e 73 166
e 73 178
e 73 181
e 73 188
e 73 190
e 73 193
e 73 198
e 74 79
e 74 82
e 74 83
e 74 87
e 74 93
e 74 94
e 74 95
e 74 107
e 74 115
e 74 139
e 74 149
e 74 152
e 74 162
e 74 164
e 74 165
e 74 176
e 74 184
e 74 185
e 74 190
e 74 195
e 75 82
e 75 84
e 75 87
e 75 91
e 75 98
e 75 100
e 75 102
e 75 112
e 75 113
e 75 114
e 75 117
e 75 125
e 75 137
e 75 146
e 75 147
e 75 150
e 75 151
e 75 155
e 75 158
e 75 160
e 75 162
e 75 171
e 75 173
e 75 184
e 75 187
e 75 191
e 76 77
e 76 88
e 76 94
e 76 96
e 76 105
e 76 109
e 76 113
e 76 115
e 76 119
e 76 123
e 76 127
e 76 135
e 76 142
e 76 148
e 76 161
e 76 168
e 76 175
e 76 176
e 76 184
e 76 188
e 76 195
e 76 196
e 76 197
e 76 199
e 76 200
e 77 89
e 77 92
e 77 96
e 77 100
e 77 102
e 77 110
e 77 112
e 77 116
e 77 118
e 77 121
e 77 123
e 77 125
e 77 126
e 77 128
e 77 139
e 77 148
e 77 150
e 77 165
e 77 167
e 77 170
e 77 174
e 77 186
e 77 187
e 77 190
e 77 193
e 77 194
e 77 195
e 77 199
e 77 200
e 78 80
e 78 81
e 78 95
e 78 97
e 78 103
e 78 119
e 78 120
e 78 137
e 78 140
e 78 141
e 78 143
e 78 151
e 78 159
e 78 161
e 78 167
e 78 168
e 78 169
e 78 170
e 78 173
e 78 177
e 78 182
e 78 184
e 78 185
e 78 195
e 78 198
e 79 88
e 79 91
e 79 97
e 79 105
e 79 118
e 79 121
e 79 133
e 79 134
e 79 139
e 79 147
e 79 154
e 79 171
e 79 172
e 79 184
e 79 185
e 79 193
e 80 86
e 80 112
e 80 116
e 80 119
e 80 121
e 80 132
e 80 133
e 80 138
e 80 145
e 80 149
e 80 159
e 80 182
e 80 185
e 80 186
e 81 90
e 81 110
e 81 111
e 81 118
e 81 125
e 81 126
e 81 129
e 81 130
e 81 140
e 81 147
e 81 148
e 81 149
e 81 152
e 81 159
e 81 160
e 81 166
e 81 178
e 81 181
e 81 184
e 81 190
e 81 192
e 81 194
e 81 197
e 82 87
e 82 92
e 82 94
e 82 97
e 82 104
e 82 113
e 82 124
e 82 128
e 82 147
e 82 149
e 82 152
e 82 157
e 82 158
e 82 163
e 82 165
e 82 172
e 82 180
e 82 181
e 82 185
e 82 188
e 82 193
e 82 199
e 83 84
e 83 95
e 83 98
e 83 99
e 83 110
e 83 113
e 83 114
e 83 115
e 83 124
e 83 130
e 83 133
e 83 134
e 83 135
e 83 145
e 83 146
e 83 152
e 83 157
e 83 160
e 83 165
e 83 168
e 83 173
e 83 191
e 83 193
e 83 194
e 84 98
e 84 102
e 84 117
e 84 119
e 84 120
e 84 122
e 84 124
e 84 131
e 84 133
e 84 134
e 84 136
e 84 147
e 84 149
e 84 150
e 84 157
e 84 159
e 84 161
e 84 162
e 84 165
e 84 166
e 84 174
e 84 184
e 84 197
e 85 87
e 85 88
e 85 90
e 85 92
e 85 93
e 85 97
e 85 103
e 85 105
e 85 108
e 85 110
e 85 111
e 85 115
e 85 117
e 85 121
e 85 123
e 85 131
e 85 132
e 85 136
e 85 139
e 85 143
e 85 148
e 85 171
e 85 176
e 85 184
e 85 185
e 85 194
e 85 196
e 86 91
e 86 94
e 86 105
e 86 110
e 86 111
e 86 114
e 86 115
e 86 119
e 86 124
e 86 129
e 86 132
e 86 133
e 86 135
e 86 139
e 86 140
e 86 141
e 86 142
e 86 143
e 86 145
e 86 148
e 86 153
e 86 173
e 86 175
e 86 180
e 86 181
e 86 187
e 86 188
e 86 191
e 86 192
e 86 199
e 87 93
e 87 96
e 87 107
e 87 113
e 87 117
e 87 119
e 87 123
e 87 126
e 87 134
e 87 139
e 87 140
e 87 146
e 87 147
e 87 152
e 87 153
e 87 155
e 87 164
e 87 168
e 87 175
e 87 179
e 87 180
e 87 184
e 87 190
e 87 193
e 87 197
e 88 89
e 88 94
e 88 95
e 88 121
e 88 123
e 88 126
e 88 127
e 88 131
e 88 132
e 88 133
e 88 134
e 88 135
e 88 138
e 88 143
e 88 153
e 88 156
e 88 166
e 88 169
e 88 170
e 88 175
e 88 180
e 88 184
e 88 186
e 88 191
e 88 195
e 88 197
e 88 198
e 89 102
e 89 112
e 89 122
e 89 133
e 89 135
e 89 137
e 89 146
e 89 150
e 89 155
e 89 156
e 89 161
e 89 173
e 89 178
e 89 186
e 89 190
e 89 194
e 89 196
e 90 92
e 90 93
e 90 97
e 90 98
e 90 102
e 90 105
e 90 109
e 90 117
e 90 126
e 90 130
e 90 133
e 90 137
e 90 140
e 90 143
e 90 145
e 90 150
e 90 155
e 90 157
e 90 167
e 90 168
e 90 169
e 90 172
e 90 178
e 90 179
e 90 183
e 90 186
e 90 195
e 90 200
e 91 96
e 91 98
e 91 103
e 91 104
e 91 108
e 91 110
e 91 113
e 91 122
e 91 123
e 91 128
e 91 130
e 91 137
e 91 140
e 91 144
e 91 147
e 91 149
e 91 150
e 91 152
e 91 158
e 91 160
e 91 161
e 91 165
e 91 166
e 91 167
e 91 174
e 91 175
e 91 177
e 91 179
e 91 185
e 91 186
e 91 193
e 92 94
e 92 99
e 92 101
e 92 109
e 92 112
e 92 114
e 92 120
e 92 129
e 92 132
e 92 134
e 92 141
e 92 144
e 92 148
e 92 149
e 92 163
e 92 170
e 92 175
e 92 180
e 92 189
e 93 95
e 93 96
e 93 98
e 93 107
e 93 108
e 93 111
e 93 117
e 93 122
e 93 124
e 93 139
e 93 144
e 93 150
e 93 152
e 93 157
e 93 165
e 93 166
e 93 170
e 93 178
e 93 181
e 93 182
e 93 195
e 93 197
e 93 198
e 94 99
e 94 106
e 94 109
e 94 117
e 94 122
e 94 132
e 94 142
e 94 143
e 94 144
e 94 145
e 94 152
e 94 153
e 94 157
e 94 160
e 94 161
e 94 167
e 94 172
e 94 178
e 94 180
e 94 181
e 94 183
e 95 96
e 95 102
e 95 105
e 95 121
e 95 122
e 95 125
e 95 128
e 95 134
e 95 144
e 95 145
e 95 150
e 95 155
e 95 162
e 95 163
e 95 171
e 95 172
e 95 174
e 95 187
e 95 188
e 95 190
e 95 199
e 96 105
e 96 106
e 96 108
e 96 109
e 96 117
e 96 121
e 96 122
e 96 126
e 96 133
e 96 149
e 96 155
e 96 160
e 96 161
e 96 166
e 96 170
e 96 173
e 96 176
e 96 177
e 96 185
e 96 186
e 96 187
e 96 195
e 97 101
e 97 109
e 97 116
e 97 117
e 97 132
e 97 139
e 97 143
e 97 146
e 97 148
e 97 155
e 97 156
e 97 160
e 97 165
e 97 172
e 97 176
e 97 177
e 97 187
e 97 194
e 97 199
e 98 107
e 98 108
e 98 115
e 98 116
e 98 118
e 98 141
e 98 145
e 98 150
e 98 151
e 98 152
e 98 153
e 98 157
e 98 158
e 98 160
e 98 164
e 98 165
e 98 169
e 98 175
e 98 178
e 98 187
e 98 192
e 98 199
e 99 102
e 99 109
e 99 113
e 99 115
e 99 133
e 99 134
e 99 144
e 99 145
e 99 147
e 99 154
e 99 159
e 99 161
e 99 168
e 99 172
e 99 176
e 99 178
e 99 181
e 99 183
e 99 187
e 99 190
e 99 193
e 99 194
e 99 198
e 100 102
e 100 113
e 100 117
e 100 119
e 100 125
e 100 127
e 100 133
e 100 135
e 100 138
e 100 139
e 100 140
e 100 146
e 100 147
e 100 149
e 100 153
e 100 162
e 100 163
e 100 172
e 100 176
e 100 180
e 100 197
e 101 109
e 101 114
e 101 116
e 101 118
e 101 123
e 101 135
e 101 137
e 101 139
e 101 146
e 101 147
e 101 152
e 101 153
e 101 154
e 101 161
e 101 171
e 101 172
e 101 174
e 101 180
e 101 184
e 101 185
e 101 187
e 101 196
e 101 199
e 102 107
e 102 108
e 102 111
e 102 112
e 102 123
e 102 126
e 102 129
e 102 147
e 102 150
e 102 151
e 102 155
e 102 169
e 102 180
e 102 182
e 102 183
e 102 185
e 102 186
e 102 196
e 103 104
e 103 114
e 103 121
e 103 126
e 103 129
e 103 137
e 103 144
e 103 148
e 103 167
e 103 168
e 103 179
e 103 191
e 103 199
e 104 109
e 104 112
e 104 117
e 104 125
e 104 132
e 104 140
e 104 142
e 104 146
e 104 149
e 104 155
e 104 156
e 104 167
e 104 169
e 104 170
e 104 171
e 104 175
e 104 192
e 104 193
e 104 196
e 105 107
e 105 112
e 105 120
e 105 122
e 105 131
e 105 139
e 105 145
e 105 150
e 105 154
e 105 158
e 105 160
e 105 161
e 105 185
e 105 188
e 105 190
e 105 191
e 105 193
e 105 197
e 105 200
e 106 109
e 106 113
e 106 119
e 106 121
e 106 123
e 106 126
e 106 127
e 106 129
e 106 132
e 106 136
e 106 149
e 106 151
e 106 156
e 106 162
e 106 176
e 106 184
e 106 191
e 106 195
e 107 113
e 107 117
e 107 120
e 107 122
e 107 123
e 107 124
e 107 145
e 107 147
e 107 148
e 107 153
e 107 168
e 107 173
e 107 179
e 107 183
e 107 184
e 107 188
e 107 193
e 107 194
e 107 195
e 108 111
e 108 119
e 108 126
e 108 130
e 108 138
e 108 140
e 108 142
e 108 151
e 108 153
e 108 156
e 108 169
e 108 181
e 108 187
e 108 191
e 108 194
e 108 197
e 108 200
e 109 113
e 109 118
e 109 123
e 109 126
e 109 130
e 109 135
e 109 140
e 109 142
e 109 154
e 109 155
e 109 165
e 109 167
e 109 172
e 109 177
e 109 178
e 110 116
e 110 119
e 110 120
e 110 125
e 110 127
e 110 131
e 110 135
e 110 137
e 110 138
e 110 144
e 110 147
e 110 151
e 110 156
e 110 168
e 110 169
e 110 173
e 110 174
e 110 181
e 110 183
e 110 187
e 110 190
e 110 191
e 110 197
e 110 198
e 110 200
e 111 115
e 111 117
e 111 122
e 111 123
e 111 126
e 111 127
e 111 131
e 111 133
e 111 134
e 111 136
e 111 141
e 111 144
e 111 145
e 111 147
e 111 148
e 111 152
e 111 157
e 111 161
e 111 165
e 111 178
e 111 183
e 111 197
e 112 120
e 112 121
e 112 123
e 112 127
e 112 136
e 112 137
e 112 138
e 112 151
e 112 162
e 112 168
e 112 179
e 112 181
e 112 184
e 112 188
e 112 189
e 112 190
e 113 114
e 113 122
e 113 125
e 113 126
e 113 129
e 113 131
e 113 135
e 113 154
e 113 155
e 113 156
e 113 157
e 113 166
e 113 171
e 113 177
e 113 183
e 113 187
e 113 189
e 113 191
e 113 196
e 113 197
e 114 117
e 114 125
e 114 127
e 114 135
e 114 140
e 114 145
e 114 148
e 114 151
e 114 156
e 114 174
e 114 176
e 114 181
e 114 183
e 114 194
e 114 195
e 114 197
e 114 199
e 115 128
e 115 129
e 115 134
e 115 137
e 115 139
e 115 150
e 115 154
e 115 157
e 115 158
e 115 162
e 115 174
e 115 177
e 115 183
e 115 185
e 116 122
e 116 130
e 116 134
e 116 140
e 116 149
e 116 159
e 116 169
e 116 174
e 116 175
e 116 193
e 116 196
e 116 197
e 117 124
e 117 125
e 117 126
e 117 130
e 117 135
e 117 137
e 117 140
e 117 148
e 117 159
e 117 161
e 117 164
e 117 172
e 117 178
e 117 179
e 117 190
e 117 191
e 118 129
e 118 130
e 118 131
e 118 139
e 118 140
e 118 145
e 118 154
e 118 156
e 118 158
e 118 160
e 118 167
e 118 175
e 118 178
e 118 188
e 118 190
e 118 191
e 118 192
e 118 194
e 119 123
e 119 128
e 119 130
e 119 135
e 119 136
e 119 157
e 119 165
e 119 171
e 119 174
e 119 177
e 119 178
e 119 184
e 119 185
e 119 186
e 119 192
e 119 195
e 120 127
e 120 131
e 120 133
e 120 145
e 120 146
e 120 162
e 120 167
e 120 185
e 120 188
e 120 191
e 120 192
e 120 197
e 121 135
e 121 136
e 121 139
e 121 142
e 121 145
e 121 149
e 121 154
e 121 167
e 121 170
e 121 171
e 121 173
e 121 177
e 121 178
e 121 180
e 121 182
e 121 185
e 121 198
e 122 128
e 122 145
e 122 149
e 122 160
e 122 171
e 122 172
e 122 175
e 122 176
e 122 179
e 122 180
e 122 186
e 122 190
e 123 128
e 123 131
e 123 132
e 123 142
e 123 144
e 123 153
e 123 155
e 123 156
e 123 157
e 123 178
e 123 182
e 123 187
e 123 190
e 123 191
e 123 193
e 123 197
e 123 198
e 124 130
e 124 136
e 124 140
e 124 142
e 124 143
e 124 155
e 124 157
e 124 173
e 124 176
e 124 183
e 124 188
e 124 193
e 124 199
e 125 134
e 125 136
e 125 140
e 125 144
e 125 145
e 125 151
e 125 166
e 125 169
e 125 176
e 125 179
e 125 182
e 125 188
e 125 192
e 125 193
e 125 195
e 125 199
e 126 134
e 126 139
e 126 140
e 126 143
e 126 160
e 126 161
e 126 162
e 126 164
e 126 168
e 126 177
e 126 180
e 126 185
e 126 186
e 126 188
e 126 189
e 127 129
e 127 132
e 127 134
e 127 135
e 127 141
e 127 145
e 127 147
e 127 151
e 127 153
e 127 158
e 127 163
e 127 166
e 127 171
e 127 172
e 127 174
e 127 189
e 128 132
e 128 136
e 128 139
e 128 141
e 128 146
e 128 149
e 128 154
e 128 155
e 128 157
e 128 162
e 128 168
e 128 170
e 128 173
e 128 184
e 128 186
e 128 188
e 128 189
e 128 191
e 129 131
e 129 138
e 129 141
e 129 145
e 129 151
e 129 166
e 129 176
e 129 177
e 129 182
e 129 184
e 129 185
e 129 188
e 129 190
e 129 192
e 130 132
e 130 133
e 130 134
e 130 142
e 130 145
e 130 148
e 130 152
e 130 154
e 130 156
e 130 157
e 130 161
e 130 167
e 130 170
e 130 177
e 130 179
e 130 180
e 130 184
e 130 186
e 130 190
e 130 192
e 130 194
e 130 200
e 131 138
e 131 141
e 131 143
e 131 145
e 131 146
e 131 164
e 131 173
e 131 174
e 131 180
e 131 182
e 131 183
e 132 136
e 132 146
e 132 164
e 132 177
e 132 183
e 132 184
e 132 186
e 132 187
e 132 189
e 132 192
e 132 196
e 132 197
e 133 142
e 133 143
e 133 149
e 133 150
e 133 152
e 133 171
e 133 173
e 133 178
e 133 184
e 133 187
e 133 190
e 133 194
e 133 195
e 133 197
e 133 200
e 134 139
e 134 140
e 134 143
e 134 146
e 134 161
e 134 164
e 134 168
e 134 169
e 134 174
e 134 177
e 134 187
e 135 148
e 135 149
e 135 155
e 135 156
e 135 157
e 135 176
e 135 178
e 135 179
e 135 181
e 135 182
e 135 186
e 135 187
e 135 189
e 135 196
e 135 198
e 136 140
e 136 151
e 136 155
e 136 156
e 136 160
e 136 162
e 136 168
e 136 169
e 136 171
e 136 173
e 136 184
e 136 186
e 137 138
e 137 145
e 137 153
e 137 159
e 137 164
e 137 185
e 137 197
e 138 139
e 138 142
e 138 147
e 138 149
e 138 152
e 138 161
e 138 164
e 138 168
e 138 187
e 138 189
e 138 194
e 138 195
e 138 196
e 138 197
e 138 200
e 139 143
e 139 151
e 139 152
e 139 160
e 139 164
e 139 179
e 139 185
e 139 189
e 139 198
e 140 144
e 140 151
e 140 155
e 140 159
e 140 166
e 140 168
e 140 176
e 140 178
e 140 180
e 140 194
e 140 200
e 141 144
e 141 146
e 141 151
e 141 155
e 141 156
e 141 158
e 141 161
e 141 177
e 141 182
e 141 185
e 141 198
e 141 199
e 142 144
e 142 145
e 142 147
e 142 153
e 142 154
e 142 155
e 142 160
e 142 171
e 142 173
e 142 177
e 142 185
e 142 198
e 143 145
e 143 146
e 143 152
e 143 162
e 143 163
e 143 167
e 143 177
e 143 188
e 143 196
e 143 199
e 144 166
e 144 173
e 144 191
e 144 200
e 145 151
e 145 154
e 145 159
e 145 163
e 145 167
e 145 169
e 145 170
e 145 179
e 145 182
e 145 193
e 145 198
e 146 149
e 146 152
e 146 167
e 146 171
e 146 179
e 146 181
e 146 182
e 146 188
e 146 189
e 146 197
e 147 148
e 147 162
e 147 163
e 147 171
e 147 178
e 147 179
e 147 187
e 147 197
e 148 149
e 148 155
e 148 159
e 148 160
e 148 162
e 148 167
e 148 168
e 148 169
e 148 184
e 148 185
e 148 186
e 149 153
e 149 155
e 149 181
e 149 194
e 149 195
e 150 152
e 150 167
e 150 169
e 150 170
e 150 172
e 150 173
e 150 183
e 150 184
e 151 155
e 151 163
e 151 164
e 151 171
e 151 174
e 151 181
e 151 187
e 151 190
e 151 191
e 151 195
e 151 198
e 152 165
e 152 167
e 152 169
e 152 180
e 152 182
e 152 183
e 152 185
e 153 154
e 153 155
e 153 157
e 153 159
e 153 163
e 153 172
e 153 178
e 153 185
e 153 187
e 153 196
e 154 178
e 154 191
e 154 192
e 154 193
e 154 194
e 154 197
e 155 163
e 155 166
e 155 175
e 155 178
e 155 180
e 155 183
e 155 190
e 155 193
e 155 197
e 156 162
e 156 178
e 156 182
e 156 185
e 156 190
e 156 197
e 157 161
e 157 164
e 157 168
e 157 169
e 157 176
e 157 182
e 157 192
e 158 159
e 158 160
e 158 171
e 158 172
e 158 177
e 158 186
e 158 192
e 159 163
e 159 164
e 159 169
e 159 184
e 159 185
e 159 190
e 159 192
e 160 162
e 160 164
e 160 168
e 160 175
e 160 176
e 160 178
e 160 180
e 160 186
e 160 187
e 160 193
e 160 194
e 161 168
e 161 173
e 161 185
e 161 195
e 161 196
e 161 197
e 161 199
e 162 167
e 162 171
e 162 176
e 162 190
e 162 191
e 162 192
e 162 193
e 162 194
e 162 195
e 163 176
e 163 177
e 163 179
e 163 182
e 163 186
e 163 193
e 163 194
e 163 197
e 163 199
e 164 166
e 164 169
e 164 171
e 164 179
e 164 180
e 164 181
e 164 183
e 164 189
e 164 192
e 164 199
e 165 172
e 165 180
e 165 181
e 165 183
e 165 192
e 166 167
e 166 168
e 166 173
e 166 184
e 166 185
e 166 186
e 166 187
e 166 196
e 166 197
e 166 198
e 167 171
e 167 172
e 167 183
e 167 187
e 167 188
e 167 189
e 167 193
e 167 194
e 167 196
e 167 199
e 168 169
e 168 184
e 168 189
e 169 172
e 169 178
e 169 184
e 169 189
e 169 194
e 170 176
e 170 178
e 170 179
e 170 181
e 170 184
e 170 189
e 170 196
e 170 198
e 171 181
e 171 182
e 171 195
e 171 198
e 172 175
e 172 178
e 172 180
e 172 183
e 172 185
e 172 192
e 172 198
e 173 188
e 173 190
e 173 193
e 173 194
e 173 195
e 173 196
e 174 177
e 174 178
e 174 181
e 174 187
e 174 189
e 174 190
e 174 196
e 174 200
e 175 185
e 175 190
e 175 195
e 175 200
e 176 184
e 176 185
e 176 187
e 176 192
e 176 193
e 176 195
e 176 199
e 177 184
e 177 190
e 177 191
e 177 196
e 178 182
e 178 183
e 178 185
e 178 188
e 179 180
e 179 181
e 179 183
e 179 184
e 179 188
e 179 196
e 180 183
e 180 191
e 180 194
e 180 196
e 180 200
e 181 194
e 181 198
e 182 191
e 183 186
e 183 190
e 183 192
e 183 196
e 183 198
e 184 186
e 184 198
e 185 187
e 185 188
e 185 189
e 185 190
e 185 193
e 185 196
e 186 189
e 186 190
e 186 192
e 186 195
e 186 197
e 186 199
e 187 191
e 187 193
e 187 194
e 187 196
e 187 200
e 188 192
e 188 199
e 189 194
e 189 196
e 191 197
e 194 197
e 194 198
e 195 197
e 195 200
e 196 200
e 198 200
